\Problem : vne
Minimize
obj :  + 0.0581978082360815 Xm45w0 + 0.09360564209069143 Xm51w0 + 0.049929948318745115 Xm45w1 + 0.08030757538105288 Xm51w1 + 0.056258079537591675 Xm45w2 + 0.09048577287555985 Xm51w2 + 0.07037335488967865 Xm45w3 + 0.11318885143926169 Xm51w3 + 0.05590213533674145 Xm45w4 + 0.0899132704656085 Xm51w4 + 0.09201057132086017 Xm42w5 + 0.08629039884270077 Xm51w5 + 0.10506964845366386 Xm42w6 + 0.09853761085465079 Xm51w6 + 0.0963268866251483 Xm51w7 + 0.12766440672263252 vs37vd39ss0sd1 + 0.12766440672263252 vs37vd39ss1sd0 + 0.1490600876072993 vs37vd39ss0sd2 + 0.1490600876072993 vs37vd39ss2sd0 + 0.15099238919564242 vs37vd39ss0sd3 + 0.15099238919564242 vs37vd39ss3sd0 + 0.11626944910482405 vs37vd39ss0sd7 + 0.11626944910482405 vs37vd39ss7sd0 + 0.12639389724926506 vs37vd39ss1sd2 + 0.12639389724926506 vs37vd39ss2sd1 + 0.11380303234804517 vs37vd39ss1sd5 + 0.11380303234804517 vs37vd39ss5sd1 + 0.10715647372805963 vs37vd39ss1sd6 + 0.10715647372805963 vs37vd39ss6sd1 + 0.13163966276931616 vs37vd39ss1sd8 + 0.13163966276931616 vs37vd39ss8sd1 + 0.10835141927008966 vs37vd39ss2sd3 + 0.10835141927008966 vs37vd39ss3sd2 + 0.11452783772770492 vs37vd39ss2sd4 + 0.11452783772770492 vs37vd39ss4sd2 + 0.1479066775815694 vs37vd39ss2sd6 + 0.1479066775815694 vs37vd39ss6sd2 + 0.12164664203329512 vs37vd39ss3sd4 + 0.12164664203329512 vs37vd39ss4sd3 + 0.11236895101581473 vs37vd39ss3sd7 + 0.11236895101581473 vs37vd39ss7sd3 + 0.10697369533959232 vs37vd39ss3sd8 + 0.10697369533959232 vs37vd39ss8sd3 + 0.1297856147222056 vs37vd39ss4sd5 + 0.1297856147222056 vs37vd39ss5sd4 + 0.14107378557751296 vs37vd39ss4sd7 + 0.14107378557751296 vs37vd39ss7sd4 + 0.12151515636759594 vs37vd39ss4sd9 + 0.12151515636759594 vs37vd39ss9sd4 + 0.15004448838358872 vs37vd39ss5sd6 + 0.15004448838358872 vs37vd39ss6sd5 + 0.1417139762456114 vs37vd39ss5sd9 + 0.1417139762456114 vs37vd39ss9sd5 + 0.1347222468798267 vs37vd39ss5sd10 + 0.1347222468798267 vs37vd39ss10sd5 + 0.1068313800021117 vs37vd39ss6sd10 + 0.1068313800021117 vs37vd39ss10sd6 + 0.13340306588847478 vs37vd39ss7sd8 + 0.13340306588847478 vs37vd39ss8sd7 + 0.13241953356076536 vs37vd39ss7sd9 + 0.13241953356076536 vs37vd39ss9sd7 + 0.10734291453305796 vs37vd39ss8sd9 + 0.10734291453305796 vs37vd39ss9sd8 + 0.13032837563974856 vs37vd39ss8sd10 + 0.13032837563974856 vs37vd39ss10sd8 + 0.10826253504247896 vs37vd39ss9sd10 + 0.10826253504247896 vs37vd39ss10sd9 + 0.015176984823015176 vs37vd39ss42sd5 + 0.015176984823015176 vs37vd39ss5sd42 + 0.015176984823015176 vs37vd39ss42sd6 + 0.015176984823015176 vs37vd39ss6sd42 + 0.015176984823015176 vs37vd39ss45sd0 + 0.015176984823015176 vs37vd39ss0sd45 + 0.015176984823015176 vs37vd39ss45sd1 + 0.015176984823015176 vs37vd39ss1sd45 + 0.015176984823015176 vs37vd39ss45sd2 + 0.015176984823015176 vs37vd39ss2sd45 + 0.015176984823015176 vs37vd39ss45sd3 + 0.015176984823015176 vs37vd39ss3sd45 + 0.015176984823015176 vs37vd39ss45sd4 + 0.015176984823015176 vs37vd39ss4sd45 + 0.015176984823015176 vs37vd39ss51sd0 + 0.015176984823015176 vs37vd39ss0sd51 + 0.015176984823015176 vs37vd39ss51sd1 + 0.015176984823015176 vs37vd39ss1sd51 + 0.015176984823015176 vs37vd39ss51sd2 + 0.015176984823015176 vs37vd39ss2sd51 + 0.015176984823015176 vs37vd39ss51sd3 + 0.015176984823015176 vs37vd39ss3sd51 + 0.015176984823015176 vs37vd39ss51sd4 + 0.015176984823015176 vs37vd39ss4sd51 + 0.015176984823015176 vs37vd39ss51sd5 + 0.015176984823015176 vs37vd39ss5sd51 + 0.015176984823015176 vs37vd39ss51sd6 + 0.015176984823015176 vs37vd39ss6sd51 + 0.015176984823015176 vs37vd39ss51sd7 + 0.015176984823015176 vs37vd39ss7sd51 + 0.04124257667266701 vs37vd38ss0sd1 + 0.04124257667266701 vs37vd38ss1sd0 + 0.04815455027598263 vs37vd38ss0sd2 + 0.04815455027598263 vs37vd38ss2sd0 + 0.04877878923543749 vs37vd38ss0sd3 + 0.04877878923543749 vs37vd38ss3sd0 + 0.03756138294530884 vs37vd38ss0sd7 + 0.03756138294530884 vs37vd38ss7sd0 + 0.040832132714841304 vs37vd38ss1sd2 + 0.040832132714841304 vs37vd38ss2sd1 + 0.03676459561194343 vs37vd38ss1sd5 + 0.03676459561194343 vs37vd38ss5sd1 + 0.034617394128528454 vs37vd38ss1sd6 + 0.034617394128528454 vs37vd38ss6sd1 + 0.04252680151268084 vs37vd38ss1sd8 + 0.04252680151268084 vs37vd38ss8sd1 + 0.03500342680906962 vs37vd38ss2sd3 + 0.03500342680906962 vs37vd38ss3sd2 + 0.036998747339984 vs37vd38ss2sd4 + 0.036998747339984 vs37vd38ss4sd2 + 0.047781935835964594 vs37vd38ss2sd6 + 0.047781935835964594 vs37vd38ss6sd2 + 0.03929850997491243 vs37vd38ss3sd4 + 0.03929850997491243 vs37vd38ss4sd3 + 0.036301309009062366 vs37vd38ss3sd7 + 0.036301309009062366 vs37vd38ss7sd3 + 0.03455834672530942 vs37vd38ss3sd8 + 0.03455834672530942 vs37vd38ss8sd3 + 0.041927842721418855 vs37vd38ss4sd5 + 0.041927842721418855 vs37vd38ss5sd4 + 0.045574538491569214 vs37vd38ss4sd7 + 0.045574538491569214 vs37vd38ss7sd4 + 0.03925603292286505 vs37vd38ss4sd9 + 0.03925603292286505 vs37vd38ss9sd4 + 0.04847256549678694 vs37vd38ss5sd6 + 0.04847256549678694 vs37vd38ss6sd5 + 0.04578135504594009 vs37vd38ss5sd9 + 0.04578135504594009 vs37vd38ss9sd5 + 0.04352264455767216 vs37vd38ss5sd10 + 0.04352264455767216 vs37vd38ss10sd5 + 0.03451237109773695 vs37vd38ss6sd10 + 0.03451237109773695 vs37vd38ss10sd6 + 0.04309647704099571 vs37vd38ss7sd8 + 0.04309647704099571 vs37vd38ss8sd7 + 0.04277874237651924 vs37vd38ss7sd9 + 0.04277874237651924 vs37vd38ss9sd7 + 0.03467762469233598 vs37vd38ss8sd9 + 0.03467762469233598 vs37vd38ss9sd8 + 0.042103184144540236 vs37vd38ss8sd10 + 0.042103184144540236 vs37vd38ss10sd8 + 0.03497471234850592 vs37vd38ss9sd10 + 0.03497471234850592 vs37vd38ss10sd9 + 0.004902995097004903 vs37vd38ss42sd5 + 0.004902995097004903 vs37vd38ss5sd42 + 0.004902995097004903 vs37vd38ss42sd6 + 0.004902995097004903 vs37vd38ss6sd42 + 0.004902995097004903 vs37vd38ss45sd0 + 0.004902995097004903 vs37vd38ss0sd45 + 0.004902995097004903 vs37vd38ss45sd1 + 0.004902995097004903 vs37vd38ss1sd45 + 0.004902995097004903 vs37vd38ss45sd2 + 0.004902995097004903 vs37vd38ss2sd45 + 0.004902995097004903 vs37vd38ss45sd3 + 0.004902995097004903 vs37vd38ss3sd45 + 0.004902995097004903 vs37vd38ss45sd4 + 0.004902995097004903 vs37vd38ss4sd45 + 0.004902995097004903 vs37vd38ss51sd0 + 0.004902995097004903 vs37vd38ss0sd51 + 0.004902995097004903 vs37vd38ss51sd1 + 0.004902995097004903 vs37vd38ss1sd51 + 0.004902995097004903 vs37vd38ss51sd2 + 0.004902995097004903 vs37vd38ss2sd51 + 0.004902995097004903 vs37vd38ss51sd3 + 0.004902995097004903 vs37vd38ss3sd51 + 0.004902995097004903 vs37vd38ss51sd4 + 0.004902995097004903 vs37vd38ss4sd51 + 0.004902995097004903 vs37vd38ss51sd5 + 0.004902995097004903 vs37vd38ss5sd51 + 0.004902995097004903 vs37vd38ss51sd6 + 0.004902995097004903 vs37vd38ss6sd51 + 0.004902995097004903 vs37vd38ss51sd7 + 0.004902995097004903 vs37vd38ss7sd51
Subject To
 + 7.15675907221565 Xm45w0 + 11.510966624818597 Xm51w0<=122.972
 + 7.15675907221565 Xm45w1 + 11.510966624818597 Xm51w1<=143.335
 + 7.15675907221565 Xm45w2 + 11.510966624818597 Xm51w2<=127.212
 + 7.15675907221565 Xm45w3 + 11.510966624818597 Xm51w3<=101.696
 + 7.15675907221565 Xm45w4 + 11.510966624818597 Xm51w4<=128.022
 + 12.274026193060104 Xm42w5 + 11.510966624818597 Xm51w5<=133.397
 + 12.274026193060104 Xm42w6 + 11.510966624818597 Xm51w6<=116.817
 + 11.510966624818597 Xm51w7<=119.498
<=133.511
<=106.668
<=107.965
+Xm45w0+Xm51w0<=1
+Xm45w1+Xm51w1<=1
+Xm45w2+Xm51w2<=1
+Xm45w3+Xm51w3<=1
+Xm45w4+Xm51w4<=1
+Xm42w5+Xm51w5<=1
+Xm42w6+Xm51w6<=1
+Xm51w7<=1
<=1
<=1
<=1
 +Xm42w5 +Xm42w6=1
 +Xm45w0 +Xm45w1 +Xm45w2 +Xm45w3 +Xm45w4=1
 +Xm51w0 +Xm51w1 +Xm51w2 +Xm51w3 +Xm51w4 +Xm51w5 +Xm51w6 +Xm51w7=1
 + vs37vd39ss0sd1 - vs37vd39ss1sd0 + vs37vd39ss0sd2 - vs37vd39ss2sd0 + vs37vd39ss0sd3 - vs37vd39ss3sd0 + vs37vd39ss0sd7 - vs37vd39ss7sd0 + vs37vd39ss0sd45 - vs37vd39ss45sd0 + vs37vd39ss0sd51 - vs37vd39ss51sd0 = 0
 + vs37vd39ss1sd0 - vs37vd39ss0sd1 + vs37vd39ss1sd2 - vs37vd39ss2sd1 + vs37vd39ss1sd5 - vs37vd39ss5sd1 + vs37vd39ss1sd6 - vs37vd39ss6sd1 + vs37vd39ss1sd8 - vs37vd39ss8sd1 + vs37vd39ss1sd45 - vs37vd39ss45sd1 + vs37vd39ss1sd51 - vs37vd39ss51sd1 = 0
 + vs37vd39ss2sd0 - vs37vd39ss0sd2 + vs37vd39ss2sd1 - vs37vd39ss1sd2 + vs37vd39ss2sd3 - vs37vd39ss3sd2 + vs37vd39ss2sd4 - vs37vd39ss4sd2 + vs37vd39ss2sd6 - vs37vd39ss6sd2 + vs37vd39ss2sd45 - vs37vd39ss45sd2 + vs37vd39ss2sd51 - vs37vd39ss51sd2 = 0
 + vs37vd39ss3sd0 - vs37vd39ss0sd3 + vs37vd39ss3sd2 - vs37vd39ss2sd3 + vs37vd39ss3sd4 - vs37vd39ss4sd3 + vs37vd39ss3sd7 - vs37vd39ss7sd3 + vs37vd39ss3sd8 - vs37vd39ss8sd3 + vs37vd39ss3sd45 - vs37vd39ss45sd3 + vs37vd39ss3sd51 - vs37vd39ss51sd3 = 0
 + vs37vd39ss7sd0 - vs37vd39ss0sd7 + vs37vd39ss7sd3 - vs37vd39ss3sd7 + vs37vd39ss7sd4 - vs37vd39ss4sd7 + vs37vd39ss7sd8 - vs37vd39ss8sd7 + vs37vd39ss7sd9 - vs37vd39ss9sd7 + vs37vd39ss7sd51 - vs37vd39ss51sd7 = 0
 + vs37vd39ss5sd1 - vs37vd39ss1sd5 + vs37vd39ss5sd4 - vs37vd39ss4sd5 + vs37vd39ss5sd6 - vs37vd39ss6sd5 + vs37vd39ss5sd9 - vs37vd39ss9sd5 + vs37vd39ss5sd10 - vs37vd39ss10sd5 + vs37vd39ss5sd42 - vs37vd39ss42sd5 + vs37vd39ss5sd51 - vs37vd39ss51sd5 = 0
 + vs37vd39ss6sd1 - vs37vd39ss1sd6 + vs37vd39ss6sd2 - vs37vd39ss2sd6 + vs37vd39ss6sd5 - vs37vd39ss5sd6 + vs37vd39ss6sd10 - vs37vd39ss10sd6 + vs37vd39ss6sd42 - vs37vd39ss42sd6 + vs37vd39ss6sd51 - vs37vd39ss51sd6 = 0
 + vs37vd39ss8sd1 - vs37vd39ss1sd8 + vs37vd39ss8sd3 - vs37vd39ss3sd8 + vs37vd39ss8sd7 - vs37vd39ss7sd8 + vs37vd39ss8sd9 - vs37vd39ss9sd8 + vs37vd39ss8sd10 - vs37vd39ss10sd8 = 0
 + vs37vd39ss4sd2 - vs37vd39ss2sd4 + vs37vd39ss4sd3 - vs37vd39ss3sd4 + vs37vd39ss4sd5 - vs37vd39ss5sd4 + vs37vd39ss4sd7 - vs37vd39ss7sd4 + vs37vd39ss4sd9 - vs37vd39ss9sd4 + vs37vd39ss4sd45 - vs37vd39ss45sd4 + vs37vd39ss4sd51 - vs37vd39ss51sd4 = 0
 + vs37vd39ss9sd4 - vs37vd39ss4sd9 + vs37vd39ss9sd5 - vs37vd39ss5sd9 + vs37vd39ss9sd7 - vs37vd39ss7sd9 + vs37vd39ss9sd8 - vs37vd39ss8sd9 + vs37vd39ss9sd10 - vs37vd39ss10sd9 = 0
 + vs37vd39ss10sd5 - vs37vd39ss5sd10 + vs37vd39ss10sd6 - vs37vd39ss6sd10 + vs37vd39ss10sd8 - vs37vd39ss8sd10 + vs37vd39ss10sd9 - vs37vd39ss9sd10 = 0
 + vs37vd39ss42sd5 - vs37vd39ss5sd42 + vs37vd39ss42sd6 - vs37vd39ss6sd42 = 1
 + vs37vd39ss45sd0 - vs37vd39ss0sd45 + vs37vd39ss45sd1 - vs37vd39ss1sd45 + vs37vd39ss45sd2 - vs37vd39ss2sd45 + vs37vd39ss45sd3 - vs37vd39ss3sd45 + vs37vd39ss45sd4 - vs37vd39ss4sd45 = 0
 + vs37vd39ss51sd0 - vs37vd39ss0sd51 + vs37vd39ss51sd1 - vs37vd39ss1sd51 + vs37vd39ss51sd2 - vs37vd39ss2sd51 + vs37vd39ss51sd3 - vs37vd39ss3sd51 + vs37vd39ss51sd4 - vs37vd39ss4sd51 + vs37vd39ss51sd5 - vs37vd39ss5sd51 + vs37vd39ss51sd6 - vs37vd39ss6sd51 + vs37vd39ss51sd7 - vs37vd39ss7sd51 = -1
 + vs37vd38ss0sd1 - vs37vd38ss1sd0 + vs37vd38ss0sd2 - vs37vd38ss2sd0 + vs37vd38ss0sd3 - vs37vd38ss3sd0 + vs37vd38ss0sd7 - vs37vd38ss7sd0 + vs37vd38ss0sd45 - vs37vd38ss45sd0 + vs37vd38ss0sd51 - vs37vd38ss51sd0 = 0
 + vs37vd38ss1sd0 - vs37vd38ss0sd1 + vs37vd38ss1sd2 - vs37vd38ss2sd1 + vs37vd38ss1sd5 - vs37vd38ss5sd1 + vs37vd38ss1sd6 - vs37vd38ss6sd1 + vs37vd38ss1sd8 - vs37vd38ss8sd1 + vs37vd38ss1sd45 - vs37vd38ss45sd1 + vs37vd38ss1sd51 - vs37vd38ss51sd1 = 0
 + vs37vd38ss2sd0 - vs37vd38ss0sd2 + vs37vd38ss2sd1 - vs37vd38ss1sd2 + vs37vd38ss2sd3 - vs37vd38ss3sd2 + vs37vd38ss2sd4 - vs37vd38ss4sd2 + vs37vd38ss2sd6 - vs37vd38ss6sd2 + vs37vd38ss2sd45 - vs37vd38ss45sd2 + vs37vd38ss2sd51 - vs37vd38ss51sd2 = 0
 + vs37vd38ss3sd0 - vs37vd38ss0sd3 + vs37vd38ss3sd2 - vs37vd38ss2sd3 + vs37vd38ss3sd4 - vs37vd38ss4sd3 + vs37vd38ss3sd7 - vs37vd38ss7sd3 + vs37vd38ss3sd8 - vs37vd38ss8sd3 + vs37vd38ss3sd45 - vs37vd38ss45sd3 + vs37vd38ss3sd51 - vs37vd38ss51sd3 = 0
 + vs37vd38ss7sd0 - vs37vd38ss0sd7 + vs37vd38ss7sd3 - vs37vd38ss3sd7 + vs37vd38ss7sd4 - vs37vd38ss4sd7 + vs37vd38ss7sd8 - vs37vd38ss8sd7 + vs37vd38ss7sd9 - vs37vd38ss9sd7 + vs37vd38ss7sd51 - vs37vd38ss51sd7 = 0
 + vs37vd38ss5sd1 - vs37vd38ss1sd5 + vs37vd38ss5sd4 - vs37vd38ss4sd5 + vs37vd38ss5sd6 - vs37vd38ss6sd5 + vs37vd38ss5sd9 - vs37vd38ss9sd5 + vs37vd38ss5sd10 - vs37vd38ss10sd5 + vs37vd38ss5sd42 - vs37vd38ss42sd5 + vs37vd38ss5sd51 - vs37vd38ss51sd5 = 0
 + vs37vd38ss6sd1 - vs37vd38ss1sd6 + vs37vd38ss6sd2 - vs37vd38ss2sd6 + vs37vd38ss6sd5 - vs37vd38ss5sd6 + vs37vd38ss6sd10 - vs37vd38ss10sd6 + vs37vd38ss6sd42 - vs37vd38ss42sd6 + vs37vd38ss6sd51 - vs37vd38ss51sd6 = 0
 + vs37vd38ss8sd1 - vs37vd38ss1sd8 + vs37vd38ss8sd3 - vs37vd38ss3sd8 + vs37vd38ss8sd7 - vs37vd38ss7sd8 + vs37vd38ss8sd9 - vs37vd38ss9sd8 + vs37vd38ss8sd10 - vs37vd38ss10sd8 = 0
 + vs37vd38ss4sd2 - vs37vd38ss2sd4 + vs37vd38ss4sd3 - vs37vd38ss3sd4 + vs37vd38ss4sd5 - vs37vd38ss5sd4 + vs37vd38ss4sd7 - vs37vd38ss7sd4 + vs37vd38ss4sd9 - vs37vd38ss9sd4 + vs37vd38ss4sd45 - vs37vd38ss45sd4 + vs37vd38ss4sd51 - vs37vd38ss51sd4 = 0
 + vs37vd38ss9sd4 - vs37vd38ss4sd9 + vs37vd38ss9sd5 - vs37vd38ss5sd9 + vs37vd38ss9sd7 - vs37vd38ss7sd9 + vs37vd38ss9sd8 - vs37vd38ss8sd9 + vs37vd38ss9sd10 - vs37vd38ss10sd9 = 0
 + vs37vd38ss10sd5 - vs37vd38ss5sd10 + vs37vd38ss10sd6 - vs37vd38ss6sd10 + vs37vd38ss10sd8 - vs37vd38ss8sd10 + vs37vd38ss10sd9 - vs37vd38ss9sd10 = 0
 + vs37vd38ss42sd5 - vs37vd38ss5sd42 + vs37vd38ss42sd6 - vs37vd38ss6sd42 = 1
 + vs37vd38ss45sd0 - vs37vd38ss0sd45 + vs37vd38ss45sd1 - vs37vd38ss1sd45 + vs37vd38ss45sd2 - vs37vd38ss2sd45 + vs37vd38ss45sd3 - vs37vd38ss3sd45 + vs37vd38ss45sd4 - vs37vd38ss4sd45 = -1
 + vs37vd38ss51sd0 - vs37vd38ss0sd51 + vs37vd38ss51sd1 - vs37vd38ss1sd51 + vs37vd38ss51sd2 - vs37vd38ss2sd51 + vs37vd38ss51sd3 - vs37vd38ss3sd51 + vs37vd38ss51sd4 - vs37vd38ss4sd51 + vs37vd38ss51sd5 - vs37vd38ss5sd51 + vs37vd38ss51sd6 - vs37vd38ss6sd51 + vs37vd38ss51sd7 - vs37vd38ss7sd51 = 0
 + 15.177 vs37vd39ss0sd1 + 15.177 vs37vd39ss1sd0 + 4.903 vs37vd38ss0sd1 + 4.903 vs37vd38ss1sd0 <= 118.881
 + 15.177 vs37vd39ss0sd2 + 15.177 vs37vd39ss2sd0 + 4.903 vs37vd38ss0sd2 + 4.903 vs37vd38ss2sd0 <= 101.817
 + 15.177 vs37vd39ss0sd3 + 15.177 vs37vd39ss3sd0 + 4.903 vs37vd38ss0sd3 + 4.903 vs37vd38ss3sd0 <= 100.514
 + 15.177 vs37vd39ss0sd7 + 15.177 vs37vd39ss7sd0 + 4.903 vs37vd38ss0sd7 + 4.903 vs37vd38ss7sd0 <= 130.532
 + 15.177 vs37vd39ss1sd2 + 15.177 vs37vd39ss2sd1 + 4.903 vs37vd38ss1sd2 + 4.903 vs37vd38ss2sd1 <= 120.076
 + 15.177 vs37vd39ss1sd5 + 15.177 vs37vd39ss5sd1 + 4.903 vs37vd38ss1sd5 + 4.903 vs37vd38ss5sd1 <= 133.361
 + 15.177 vs37vd39ss1sd6 + 15.177 vs37vd39ss6sd1 + 4.903 vs37vd38ss1sd6 + 4.903 vs37vd38ss6sd1 <= 141.633
 + 15.177 vs37vd39ss1sd8 + 15.177 vs37vd39ss8sd1 + 4.903 vs37vd38ss1sd8 + 4.903 vs37vd38ss8sd1 <= 115.291
 + 15.177 vs37vd39ss2sd3 + 15.177 vs37vd39ss3sd2 + 4.903 vs37vd38ss2sd3 + 4.903 vs37vd38ss3sd2 <= 140.071
 + 15.177 vs37vd39ss2sd4 + 15.177 vs37vd39ss4sd2 + 4.903 vs37vd38ss2sd4 + 4.903 vs37vd38ss4sd2 <= 132.517
 + 15.177 vs37vd39ss2sd6 + 15.177 vs37vd39ss6sd2 + 4.903 vs37vd38ss2sd6 + 4.903 vs37vd38ss6sd2 <= 102.611
 + 15.177 vs37vd39ss3sd4 + 15.177 vs37vd39ss4sd3 + 4.903 vs37vd38ss3sd4 + 4.903 vs37vd38ss4sd3 <= 124.762
 + 15.177 vs37vd39ss3sd7 + 15.177 vs37vd39ss7sd3 + 4.903 vs37vd38ss3sd7 + 4.903 vs37vd38ss7sd3 <= 135.063
 + 15.177 vs37vd39ss3sd8 + 15.177 vs37vd39ss8sd3 + 4.903 vs37vd38ss3sd8 + 4.903 vs37vd38ss8sd3 <= 141.875
 + 15.177 vs37vd39ss4sd5 + 15.177 vs37vd39ss5sd4 + 4.903 vs37vd38ss4sd5 + 4.903 vs37vd38ss5sd4 <= 116.938
 + 15.177 vs37vd39ss4sd7 + 15.177 vs37vd39ss7sd4 + 4.903 vs37vd38ss4sd7 + 4.903 vs37vd38ss7sd4 <= 107.581
 + 15.177 vs37vd39ss4sd9 + 15.177 vs37vd39ss9sd4 + 4.903 vs37vd38ss4sd9 + 4.903 vs37vd38ss9sd4 <= 124.897
 + 15.177 vs37vd39ss5sd6 + 15.177 vs37vd39ss6sd5 + 4.903 vs37vd38ss5sd6 + 4.903 vs37vd38ss6sd5 <= 101.149
 + 15.177 vs37vd39ss5sd9 + 15.177 vs37vd39ss9sd5 + 4.903 vs37vd38ss5sd9 + 4.903 vs37vd38ss9sd5 <= 107.095
 + 15.177 vs37vd39ss5sd10 + 15.177 vs37vd39ss10sd5 + 4.903 vs37vd38ss5sd10 + 4.903 vs37vd38ss10sd5 <= 112.653
 + 15.177 vs37vd39ss6sd10 + 15.177 vs37vd39ss10sd6 + 4.903 vs37vd38ss6sd10 + 4.903 vs37vd38ss10sd6 <= 142.064
 + 15.177 vs37vd39ss7sd8 + 15.177 vs37vd39ss8sd7 + 4.903 vs37vd38ss7sd8 + 4.903 vs37vd38ss8sd7 <= 113.767
 + 15.177 vs37vd39ss7sd9 + 15.177 vs37vd39ss9sd7 + 4.903 vs37vd38ss7sd9 + 4.903 vs37vd38ss9sd7 <= 114.612
 + 15.177 vs37vd39ss8sd9 + 15.177 vs37vd39ss9sd8 + 4.903 vs37vd38ss8sd9 + 4.903 vs37vd38ss9sd8 <= 141.387
 + 15.177 vs37vd39ss8sd10 + 15.177 vs37vd39ss10sd8 + 4.903 vs37vd38ss8sd10 + 4.903 vs37vd38ss10sd8 <= 116.451
 + 15.177 vs37vd39ss9sd10 + 15.177 vs37vd39ss10sd9 + 4.903 vs37vd38ss9sd10 + 4.903 vs37vd38ss10sd9 <= 140.186
 + 15.177 vs37vd39ss42sd5 + 15.177 vs37vd39ss5sd42 + 4.903 vs37vd38ss42sd5 + 4.903 vs37vd38ss5sd42 <= 1000.0
 + 15.177 vs37vd39ss42sd6 + 15.177 vs37vd39ss6sd42 + 4.903 vs37vd38ss42sd6 + 4.903 vs37vd38ss6sd42 <= 1000.0
 + 15.177 vs37vd39ss45sd0 + 15.177 vs37vd39ss0sd45 + 4.903 vs37vd38ss45sd0 + 4.903 vs37vd38ss0sd45 <= 1000.0
 + 15.177 vs37vd39ss45sd1 + 15.177 vs37vd39ss1sd45 + 4.903 vs37vd38ss45sd1 + 4.903 vs37vd38ss1sd45 <= 1000.0
 + 15.177 vs37vd39ss45sd2 + 15.177 vs37vd39ss2sd45 + 4.903 vs37vd38ss45sd2 + 4.903 vs37vd38ss2sd45 <= 1000.0
 + 15.177 vs37vd39ss45sd3 + 15.177 vs37vd39ss3sd45 + 4.903 vs37vd38ss45sd3 + 4.903 vs37vd38ss3sd45 <= 1000.0
 + 15.177 vs37vd39ss45sd4 + 15.177 vs37vd39ss4sd45 + 4.903 vs37vd38ss45sd4 + 4.903 vs37vd38ss4sd45 <= 1000.0
 + 15.177 vs37vd39ss51sd0 + 15.177 vs37vd39ss0sd51 + 4.903 vs37vd38ss51sd0 + 4.903 vs37vd38ss0sd51 <= 1000.0
 + 15.177 vs37vd39ss51sd1 + 15.177 vs37vd39ss1sd51 + 4.903 vs37vd38ss51sd1 + 4.903 vs37vd38ss1sd51 <= 1000.0
 + 15.177 vs37vd39ss51sd2 + 15.177 vs37vd39ss2sd51 + 4.903 vs37vd38ss51sd2 + 4.903 vs37vd38ss2sd51 <= 1000.0
 + 15.177 vs37vd39ss51sd3 + 15.177 vs37vd39ss3sd51 + 4.903 vs37vd38ss51sd3 + 4.903 vs37vd38ss3sd51 <= 1000.0
 + 15.177 vs37vd39ss51sd4 + 15.177 vs37vd39ss4sd51 + 4.903 vs37vd38ss51sd4 + 4.903 vs37vd38ss4sd51 <= 1000.0
 + 15.177 vs37vd39ss51sd5 + 15.177 vs37vd39ss5sd51 + 4.903 vs37vd38ss51sd5 + 4.903 vs37vd38ss5sd51 <= 1000.0
 + 15.177 vs37vd39ss51sd6 + 15.177 vs37vd39ss6sd51 + 4.903 vs37vd38ss51sd6 + 4.903 vs37vd38ss6sd51 <= 1000.0
 + 15.177 vs37vd39ss51sd7 + 15.177 vs37vd39ss7sd51 + 4.903 vs37vd38ss51sd7 + 4.903 vs37vd38ss7sd51 <= 1000.0
Bounds
0<=Xm45w0<=1
0<=Xm51w0<=1
0<=Xm45w1<=1
0<=Xm51w1<=1
0<=Xm45w2<=1
0<=Xm51w2<=1
0<=Xm45w3<=1
0<=Xm51w3<=1
0<=Xm45w4<=1
0<=Xm51w4<=1
0<=Xm42w5<=1
0<=Xm51w5<=1
0<=Xm42w6<=1
0<=Xm51w6<=1
0<=Xm51w7<=1
0 <= vs37vd39ss0sd1 <= 1
0 <= vs37vd39ss1sd0 <= 1
0 <= vs37vd39ss0sd2 <= 1
0 <= vs37vd39ss2sd0 <= 1
0 <= vs37vd39ss0sd3 <= 1
0 <= vs37vd39ss3sd0 <= 1
0 <= vs37vd39ss0sd7 <= 1
0 <= vs37vd39ss7sd0 <= 1
0 <= vs37vd39ss1sd2 <= 1
0 <= vs37vd39ss2sd1 <= 1
0 <= vs37vd39ss1sd5 <= 1
0 <= vs37vd39ss5sd1 <= 1
0 <= vs37vd39ss1sd6 <= 1
0 <= vs37vd39ss6sd1 <= 1
0 <= vs37vd39ss1sd8 <= 1
0 <= vs37vd39ss8sd1 <= 1
0 <= vs37vd39ss2sd3 <= 1
0 <= vs37vd39ss3sd2 <= 1
0 <= vs37vd39ss2sd4 <= 1
0 <= vs37vd39ss4sd2 <= 1
0 <= vs37vd39ss2sd6 <= 1
0 <= vs37vd39ss6sd2 <= 1
0 <= vs37vd39ss3sd4 <= 1
0 <= vs37vd39ss4sd3 <= 1
0 <= vs37vd39ss3sd7 <= 1
0 <= vs37vd39ss7sd3 <= 1
0 <= vs37vd39ss3sd8 <= 1
0 <= vs37vd39ss8sd3 <= 1
0 <= vs37vd39ss4sd5 <= 1
0 <= vs37vd39ss5sd4 <= 1
0 <= vs37vd39ss4sd7 <= 1
0 <= vs37vd39ss7sd4 <= 1
0 <= vs37vd39ss4sd9 <= 1
0 <= vs37vd39ss9sd4 <= 1
0 <= vs37vd39ss5sd6 <= 1
0 <= vs37vd39ss6sd5 <= 1
0 <= vs37vd39ss5sd9 <= 1
0 <= vs37vd39ss9sd5 <= 1
0 <= vs37vd39ss5sd10 <= 1
0 <= vs37vd39ss10sd5 <= 1
0 <= vs37vd39ss6sd10 <= 1
0 <= vs37vd39ss10sd6 <= 1
0 <= vs37vd39ss7sd8 <= 1
0 <= vs37vd39ss8sd7 <= 1
0 <= vs37vd39ss7sd9 <= 1
0 <= vs37vd39ss9sd7 <= 1
0 <= vs37vd39ss8sd9 <= 1
0 <= vs37vd39ss9sd8 <= 1
0 <= vs37vd39ss8sd10 <= 1
0 <= vs37vd39ss10sd8 <= 1
0 <= vs37vd39ss9sd10 <= 1
0 <= vs37vd39ss10sd9 <= 1
0 <= vs37vd39ss42sd5 <= 1
0 <= vs37vd39ss5sd42 <= 1
0 <= vs37vd39ss42sd6 <= 1
0 <= vs37vd39ss6sd42 <= 1
0 <= vs37vd39ss45sd0 <= 1
0 <= vs37vd39ss0sd45 <= 1
0 <= vs37vd39ss45sd1 <= 1
0 <= vs37vd39ss1sd45 <= 1
0 <= vs37vd39ss45sd2 <= 1
0 <= vs37vd39ss2sd45 <= 1
0 <= vs37vd39ss45sd3 <= 1
0 <= vs37vd39ss3sd45 <= 1
0 <= vs37vd39ss45sd4 <= 1
0 <= vs37vd39ss4sd45 <= 1
0 <= vs37vd39ss51sd0 <= 1
0 <= vs37vd39ss0sd51 <= 1
0 <= vs37vd39ss51sd1 <= 1
0 <= vs37vd39ss1sd51 <= 1
0 <= vs37vd39ss51sd2 <= 1
0 <= vs37vd39ss2sd51 <= 1
0 <= vs37vd39ss51sd3 <= 1
0 <= vs37vd39ss3sd51 <= 1
0 <= vs37vd39ss51sd4 <= 1
0 <= vs37vd39ss4sd51 <= 1
0 <= vs37vd39ss51sd5 <= 1
0 <= vs37vd39ss5sd51 <= 1
0 <= vs37vd39ss51sd6 <= 1
0 <= vs37vd39ss6sd51 <= 1
0 <= vs37vd39ss51sd7 <= 1
0 <= vs37vd39ss7sd51 <= 1
0 <= vs37vd38ss0sd1 <= 1
0 <= vs37vd38ss1sd0 <= 1
0 <= vs37vd38ss0sd2 <= 1
0 <= vs37vd38ss2sd0 <= 1
0 <= vs37vd38ss0sd3 <= 1
0 <= vs37vd38ss3sd0 <= 1
0 <= vs37vd38ss0sd7 <= 1
0 <= vs37vd38ss7sd0 <= 1
0 <= vs37vd38ss1sd2 <= 1
0 <= vs37vd38ss2sd1 <= 1
0 <= vs37vd38ss1sd5 <= 1
0 <= vs37vd38ss5sd1 <= 1
0 <= vs37vd38ss1sd6 <= 1
0 <= vs37vd38ss6sd1 <= 1
0 <= vs37vd38ss1sd8 <= 1
0 <= vs37vd38ss8sd1 <= 1
0 <= vs37vd38ss2sd3 <= 1
0 <= vs37vd38ss3sd2 <= 1
0 <= vs37vd38ss2sd4 <= 1
0 <= vs37vd38ss4sd2 <= 1
0 <= vs37vd38ss2sd6 <= 1
0 <= vs37vd38ss6sd2 <= 1
0 <= vs37vd38ss3sd4 <= 1
0 <= vs37vd38ss4sd3 <= 1
0 <= vs37vd38ss3sd7 <= 1
0 <= vs37vd38ss7sd3 <= 1
0 <= vs37vd38ss3sd8 <= 1
0 <= vs37vd38ss8sd3 <= 1
0 <= vs37vd38ss4sd5 <= 1
0 <= vs37vd38ss5sd4 <= 1
0 <= vs37vd38ss4sd7 <= 1
0 <= vs37vd38ss7sd4 <= 1
0 <= vs37vd38ss4sd9 <= 1
0 <= vs37vd38ss9sd4 <= 1
0 <= vs37vd38ss5sd6 <= 1
0 <= vs37vd38ss6sd5 <= 1
0 <= vs37vd38ss5sd9 <= 1
0 <= vs37vd38ss9sd5 <= 1
0 <= vs37vd38ss5sd10 <= 1
0 <= vs37vd38ss10sd5 <= 1
0 <= vs37vd38ss6sd10 <= 1
0 <= vs37vd38ss10sd6 <= 1
0 <= vs37vd38ss7sd8 <= 1
0 <= vs37vd38ss8sd7 <= 1
0 <= vs37vd38ss7sd9 <= 1
0 <= vs37vd38ss9sd7 <= 1
0 <= vs37vd38ss8sd9 <= 1
0 <= vs37vd38ss9sd8 <= 1
0 <= vs37vd38ss8sd10 <= 1
0 <= vs37vd38ss10sd8 <= 1
0 <= vs37vd38ss9sd10 <= 1
0 <= vs37vd38ss10sd9 <= 1
0 <= vs37vd38ss42sd5 <= 1
0 <= vs37vd38ss5sd42 <= 1
0 <= vs37vd38ss42sd6 <= 1
0 <= vs37vd38ss6sd42 <= 1
0 <= vs37vd38ss45sd0 <= 1
0 <= vs37vd38ss0sd45 <= 1
0 <= vs37vd38ss45sd1 <= 1
0 <= vs37vd38ss1sd45 <= 1
0 <= vs37vd38ss45sd2 <= 1
0 <= vs37vd38ss2sd45 <= 1
0 <= vs37vd38ss45sd3 <= 1
0 <= vs37vd38ss3sd45 <= 1
0 <= vs37vd38ss45sd4 <= 1
0 <= vs37vd38ss4sd45 <= 1
0 <= vs37vd38ss51sd0 <= 1
0 <= vs37vd38ss0sd51 <= 1
0 <= vs37vd38ss51sd1 <= 1
0 <= vs37vd38ss1sd51 <= 1
0 <= vs37vd38ss51sd2 <= 1
0 <= vs37vd38ss2sd51 <= 1
0 <= vs37vd38ss51sd3 <= 1
0 <= vs37vd38ss3sd51 <= 1
0 <= vs37vd38ss51sd4 <= 1
0 <= vs37vd38ss4sd51 <= 1
0 <= vs37vd38ss51sd5 <= 1
0 <= vs37vd38ss5sd51 <= 1
0 <= vs37vd38ss51sd6 <= 1
0 <= vs37vd38ss6sd51 <= 1
0 <= vs37vd38ss51sd7 <= 1
0 <= vs37vd38ss7sd51 <= 1
General
END